\ SCIP STATISTICS
\   Problem name     : SetCover-100-150
\   Variables        : 150 (150 binary, 0 integer, 0 implicit integer, 0 continuous)
\   Constraints      : 100
Minimize
 Obj: +39 x0 +21 x1 +100 x2 +89 x3 +44 x4 +12 x5 +53 x6 +65 x7 +86 x8 +3 x9 +73 x10 +18 x11 +70 x12 +96 x13
      +85 x14 +65 x15 +13 x16 +22 x17 +36 x18 +93 x19 +55 x20 +75 x21 +92 x22 +56 x23 +12 x24 +54 x25
      +5 x26 +15 x27 +100 x28 +79 x29 +96 x30 +97 x31 +57 x32 +88 x33 +70 x34 +2 x35 +22 x36 +1 x37 +29 x38
      +92 x39 +93 x40 +29 x41 +36 x42 +9 x43 +66 x44 +27 x45 +90 x46 +83 x47 +70 x48 +19 x49 +41 x50 +43 x51
      +49 x52 +60 x53 +14 x54 +23 x55 +33 x56 +50 x57 +78 x58 +74 x59 +81 x60 +44 x61 +94 x62 +69 x63
      +1 x64 +31 x65 +37 x66 +92 x67 +26 x68 +92 x69 +46 x70 +23 x71 +48 x72 +51 x73 +62 x74 +96 x75 +57 x76
      +21 x77 +80 x78 +29 x79 +30 x80 +44 x81 +19 x82 +76 x83 +80 x84 +91 x85 +44 x86 +65 x87 +48 x88
      +65 x89 +19 x90 +75 x91 +75 x92 +66 x93 +53 x94 +47 x95 +16 x96 +95 x97 +50 x98 +54 x99 +84 x100
      +5 x101 +10 x102 +49 x103 +91 x104 +98 x105 +30 x106 +75 x107 +95 x108 +45 x109 +69 x110 +61 x111
      +79 x112 +67 x113 +73 x114 +43 x115 +27 x116 +15 x117 +5 x118 +51 x119 +68 x120 +92 x121 +96 x122
      +25 x123 +96 x124 +26 x125 +18 x126 +37 x127 +50 x128 +64 x129 +91 x130 +47 x131 +99 x132 +29 x133
      +47 x134 +88 x135 +82 x136 +23 x137 +23 x138 +43 x139 +8 x140 +59 x141 +74 x142 +70 x143 +8 x144
      +58 x145 +77 x146 +95 x147 +56 x148 +19 x149
Subject to
 c0: +1 x5 +1 x15 +1 x16 +1 x35 +1 x40 +1 x46 +1 x50 +1 x51 +1 x56 +1 x69 +1 x84 +1 x94 +1 x101 +1 x112
  +1 x115 +1 x119 +1 x131 >= +1
 c1: +1 x3 +1 x10 +1 x13 +1 x30 +1 x41 +1 x49 +1 x54 +1 x57 +1 x65 +1 x67 +1 x73 +1 x79 +1 x90 +1 x91
  +1 x96 +1 x104 +1 x118 +1 x124 +1 x127 +1 x128 +1 x133 +1 x140 +1 x147 +1 x148 >= +1
 c2: +1 x2 +1 x6 +1 x8 +1 x11 +1 x19 +1 x25 +1 x27 +1 x49 +1 x56 +1 x63 +1 x80 +1 x90 +1 x91 +1 x117 +1 x128
  +1 x132 +1 x137 +1 x142 +1 x148 >= +1
 c3: +1 x4 +1 x11 +1 x14 +1 x27 +1 x39 +1 x63 +1 x81 +1 x84 +1 x94 +1 x102 +1 x106 +1 x119 +1 x127 +1 x128
  +1 x129 +1 x137 >= +1
 c4: +1 x2 +1 x8 +1 x18 +1 x22 +1 x25 +1 x34 +1 x37 +1 x39 +1 x46 +1 x53 +1 x83 +1 x86 +1 x89 +1 x93 +1 x105
  +1 x118 +1 x132 +1 x137 +1 x140 +1 x143 >= +1
 c5: +1 x2 +1 x16 +1 x20 +1 x25 +1 x34 +1 x38 +1 x44 +1 x53 +1 x65 +1 x66 +1 x73 +1 x74 +1 x76 +1 x81
  +1 x94 +1 x97 +1 x101 +1 x108 +1 x111 +1 x120 +1 x123 +1 x124 +1 x130 +1 x135 +1 x136 +1 x137 +1 x138
  +1 x140 >= +1
 c6: +1 x3 +1 x8 +1 x9 +1 x13 +1 x14 +1 x15 +1 x18 +1 x21 +1 x27 +1 x56 +1 x57 +1 x61 +1 x82 +1 x86 +1 x93
  +1 x97 +1 x102 +1 x107 +1 x110 +1 x123 +1 x124 +1 x132 +1 x144 +1 x147 +1 x149 >= +1
 c7: +1 x4 +1 x7 +1 x13 +1 x27 +1 x34 +1 x46 +1 x54 +1 x69 +1 x74 +1 x81 +1 x82 +1 x93 +1 x97 +1 x101
  +1 x126 +1 x128 +1 x135 +1 x147 >= +1
 c8: +1 x6 +1 x12 +1 x16 +1 x32 +1 x34 +1 x43 +1 x50 +1 x51 +1 x60 +1 x66 +1 x68 +1 x86 +1 x91 +1 x93
  +1 x113 +1 x124 +1 x125 +1 x126 +1 x147 +1 x148 >= +1
 c9: +1 x0 +1 x9 +1 x12 +1 x15 +1 x19 +1 x38 +1 x43 +1 x49 +1 x51 +1 x52 +1 x65 +1 x69 +1 x72 +1 x83 +1 x86
  +1 x88 +1 x93 +1 x96 +1 x116 +1 x118 +1 x145 >= +1
 c10: +1 x1 +1 x10 +1 x11 +1 x18 +1 x23 +1 x27 +1 x28 +1 x39 +1 x44 +1 x70 +1 x89 +1 x92 +1 x97 +1 x99
  +1 x100 +1 x102 +1 x103 +1 x105 +1 x108 +1 x109 +1 x132 +1 x134 +1 x136 +1 x139 +1 x143 +1 x144 >= +1
 c11: +1 x0 +1 x18 +1 x25 +1 x32 +1 x47 +1 x50 +1 x55 +1 x63 +1 x74 +1 x77 +1 x80 +1 x85 +1 x100 +1 x107
  +1 x111 +1 x112 +1 x126 +1 x127 +1 x129 +1 x135 +1 x137 +1 x147 >= +1
 c12: +1 x4 +1 x7 +1 x17 +1 x27 +1 x33 +1 x35 +1 x50 +1 x52 +1 x55 +1 x60 +1 x64 +1 x65 +1 x70 +1 x82
  +1 x83 +1 x98 +1 x101 +1 x106 +1 x108 +1 x110 +1 x114 +1 x121 +1 x128 +1 x144 +1 x147 >= +1
 c13: +1 x1 +1 x11 +1 x21 +1 x38 +1 x47 +1 x48 +1 x55 +1 x72 +1 x79 +1 x84 +1 x95 +1 x105 +1 x127 +1 x129
  +1 x138 +1 x139 +1 x148 >= +1
 c14: +1 x0 +1 x14 +1 x16 +1 x18 +1 x19 +1 x25 +1 x31 +1 x32 +1 x37 +1 x48 +1 x51 +1 x52 +1 x58 +1 x63
  +1 x69 +1 x85 +1 x93 +1 x102 +1 x118 +1 x123 +1 x134 +1 x140 +1 x142 +1 x148 >= +1
 c15: +1 x1 +1 x9 +1 x10 +1 x13 +1 x14 +1 x18 +1 x31 +1 x44 +1 x50 +1 x57 +1 x62 +1 x64 +1 x66 +1 x70
  +1 x85 +1 x88 +1 x99 +1 x101 +1 x106 +1 x109 +1 x123 +1 x142 +1 x148 +1 x149 >= +1
 c16: +1 x0 +1 x8 +1 x16 +1 x19 +1 x33 +1 x39 +1 x42 +1 x55 +1 x56 +1 x64 +1 x71 +1 x78 +1 x100 +1 x101
  +1 x112 +1 x116 +1 x123 +1 x130 +1 x135 +1 x144 >= +1
 c17: +1 x4 +1 x7 +1 x11 +1 x42 +1 x49 +1 x52 +1 x65 +1 x66 +1 x76 +1 x81 +1 x87 +1 x102 +1 x103 +1 x107
  +1 x131 +1 x135 >= +1
 c18: +1 x5 +1 x8 +1 x10 +1 x13 +1 x16 +1 x32 +1 x41 +1 x51 +1 x66 +1 x76 +1 x82 +1 x88 +1 x91 +1 x96
  +1 x120 +1 x121 +1 x122 +1 x127 +1 x130 +1 x140 +1 x147 >= +1
 c19: +1 x5 +1 x6 +1 x13 +1 x18 +1 x26 +1 x40 +1 x61 +1 x63 +1 x67 +1 x88 +1 x92 +1 x118 +1 x121 +1 x136
  +1 x141 +1 x142 +1 x149 >= +1
 c20: +1 x2 +1 x10 +1 x15 +1 x18 +1 x34 +1 x45 +1 x46 +1 x52 +1 x55 +1 x57 +1 x68 +1 x77 +1 x82 +1 x91
  +1 x93 +1 x102 +1 x117 +1 x118 +1 x119 +1 x120 +1 x121 +1 x123 +1 x124 +1 x125 +1 x129 +1 x132 +1 x141
  >= +1
 c21: +1 x5 +1 x16 +1 x22 +1 x23 +1 x25 +1 x48 +1 x50 +1 x55 +1 x68 +1 x81 +1 x84 +1 x91 +1 x93 +1 x94
  +1 x95 +1 x100 +1 x109 +1 x111 +1 x130 +1 x133 +1 x140 +1 x141 >= +1
 c22: +1 x3 +1 x11 +1 x16 +1 x25 +1 x26 +1 x28 +1 x30 +1 x40 +1 x42 +1 x47 +1 x48 +1 x51 +1 x53 +1 x55
  +1 x86 +1 x90 +1 x97 +1 x98 +1 x100 +1 x117 +1 x118 +1 x119 +1 x121 +1 x130 +1 x135 +1 x143 >= +1
 c23: +1 x6 +1 x11 +1 x13 +1 x16 +1 x31 +1 x34 +1 x37 +1 x46 +1 x54 +1 x65 +1 x68 +1 x80 +1 x89 +1 x91
  +1 x93 +1 x100 +1 x102 +1 x105 +1 x109 +1 x131 +1 x133 +1 x145 >= +1
 c24: +1 x2 +1 x19 +1 x27 +1 x33 +1 x39 +1 x43 +1 x53 +1 x54 +1 x59 +1 x63 +1 x78 +1 x79 +1 x101 +1 x120
  +1 x125 +1 x130 +1 x138 +1 x146 >= +1
 c25: +1 x2 +1 x8 +1 x9 +1 x15 +1 x20 +1 x22 +1 x23 +1 x25 +1 x39 +1 x40 +1 x53 +1 x60 +1 x63 +1 x66 +1 x71
  +1 x75 +1 x77 +1 x79 +1 x80 +1 x84 +1 x89 +1 x99 +1 x110 +1 x114 +1 x119 +1 x120 +1 x128 +1 x130 >= +1
 c26: +1 x1 +1 x10 +1 x18 +1 x20 +1 x22 +1 x24 +1 x25 +1 x27 +1 x29 +1 x32 +1 x33 +1 x34 +1 x42 +1 x53
  +1 x56 +1 x60 +1 x61 +1 x65 +1 x74 +1 x84 +1 x92 +1 x120 +1 x134 +1 x140 +1 x144 >= +1
 c27: +1 x2 +1 x12 +1 x32 +1 x43 +1 x45 +1 x59 +1 x62 +1 x66 +1 x67 +1 x68 +1 x69 +1 x76 +1 x78 +1 x82
  +1 x84 +1 x86 +1 x87 +1 x92 +1 x109 +1 x117 +1 x119 +1 x127 +1 x129 +1 x131 +1 x134 +1 x147 +1 x148
  >= +1
 c28: +1 x6 +1 x20 +1 x21 +1 x31 +1 x42 +1 x53 +1 x56 +1 x61 +1 x64 +1 x66 +1 x71 +1 x75 +1 x81 +1 x83
  +1 x87 +1 x88 +1 x91 +1 x99 +1 x101 +1 x108 +1 x120 +1 x123 +1 x126 +1 x137 >= +1
 c29: +1 x4 +1 x9 +1 x13 +1 x14 +1 x18 +1 x19 +1 x44 +1 x46 +1 x50 +1 x53 +1 x62 +1 x68 +1 x90 +1 x99
  +1 x107 +1 x108 +1 x109 +1 x115 +1 x117 +1 x121 +1 x123 +1 x128 +1 x137 +1 x140 +1 x142 +1 x144 >= +1
 c30: +1 x5 +1 x17 +1 x31 +1 x35 +1 x36 +1 x41 +1 x43 +1 x47 +1 x56 +1 x58 +1 x59 +1 x63 +1 x67 +1 x75
  +1 x76 +1 x77 +1 x80 +1 x97 +1 x100 +1 x103 +1 x105 +1 x106 +1 x108 +1 x112 +1 x120 +1 x123 +1 x129
  +1 x130 +1 x133 +1 x139 +1 x143 +1 x144 +1 x145 >= +1
 c31: +1 x5 +1 x7 +1 x11 +1 x15 +1 x20 +1 x29 +1 x31 +1 x34 +1 x38 +1 x48 +1 x50 +1 x85 +1 x87 +1 x88
  +1 x90 +1 x101 +1 x104 +1 x105 +1 x109 +1 x119 +1 x121 +1 x130 +1 x141 +1 x143 +1 x147 >= +1
 c32: +1 x4 +1 x12 +1 x16 +1 x42 +1 x72 +1 x87 +1 x93 +1 x101 +1 x102 +1 x117 +1 x126 +1 x127 +1 x136
  +1 x137 +1 x143 >= +1
 c33: +1 x3 +1 x51 +1 x61 +1 x65 +1 x68 +1 x69 +1 x73 +1 x74 +1 x76 +1 x82 +1 x87 +1 x102 +1 x103 +1 x108
  +1 x114 +1 x129 +1 x134 +1 x147 >= +1
 c34: +1 x5 +1 x7 +1 x15 +1 x24 +1 x29 +1 x31 +1 x32 +1 x45 +1 x49 +1 x50 +1 x70 +1 x77 +1 x83 +1 x86
  +1 x94 +1 x101 +1 x114 +1 x115 +1 x123 +1 x124 +1 x128 +1 x146 +1 x147 >= +1
 c35: +1 x4 +1 x19 +1 x20 +1 x32 +1 x35 +1 x50 +1 x55 +1 x59 +1 x65 +1 x71 +1 x82 +1 x83 +1 x108 +1 x110
  +1 x111 +1 x119 +1 x134 +1 x136 +1 x140 >= +1
 c36: +1 x3 +1 x15 +1 x18 +1 x25 +1 x35 +1 x38 +1 x42 +1 x46 +1 x54 +1 x62 +1 x65 +1 x66 +1 x68 +1 x70
  +1 x71 +1 x88 +1 x97 +1 x101 +1 x109 +1 x117 +1 x131 +1 x137 >= +1
 c37: +1 x4 +1 x29 +1 x45 +1 x51 +1 x66 +1 x79 +1 x80 +1 x93 +1 x103 +1 x117 +1 x122 +1 x131 +1 x141 +1 x148
  >= +1
 c38: +1 x5 +1 x8 +1 x20 +1 x26 +1 x27 +1 x32 +1 x39 +1 x40 +1 x45 +1 x47 +1 x53 +1 x55 +1 x56 +1 x57
  +1 x64 +1 x69 +1 x72 +1 x75 +1 x86 +1 x96 +1 x99 +1 x105 +1 x109 +1 x136 +1 x140 >= +1
 c39: +1 x2 +1 x10 +1 x13 +1 x33 +1 x34 +1 x36 +1 x42 +1 x46 +1 x57 +1 x65 +1 x78 +1 x90 +1 x101 +1 x111
  +1 x115 +1 x129 +1 x136 +1 x140 +1 x143 >= +1
 c40: +1 x2 +1 x8 +1 x13 +1 x19 +1 x27 +1 x31 +1 x33 +1 x35 +1 x36 +1 x44 +1 x61 +1 x62 +1 x70 +1 x75
  +1 x79 +1 x80 +1 x87 +1 x92 +1 x95 +1 x96 +1 x98 +1 x105 +1 x109 +1 x128 +1 x132 +1 x140 +1 x143 >= +1
 c41: +1 x5 +1 x9 +1 x11 +1 x20 +1 x26 +1 x28 +1 x30 +1 x33 +1 x52 +1 x56 +1 x67 +1 x75 +1 x81 +1 x83
  +1 x85 +1 x96 +1 x100 +1 x103 +1 x115 +1 x122 +1 x123 +1 x132 +1 x147 >= +1
 c42: +1 x2 +1 x10 +1 x14 +1 x17 +1 x19 +1 x23 +1 x36 +1 x53 +1 x55 +1 x61 +1 x62 +1 x72 +1 x97 +1 x99
  +1 x102 +1 x110 +1 x117 +1 x118 +1 x125 +1 x128 +1 x142 +1 x144 +1 x146 >= +1
 c43: +1 x1 +1 x7 +1 x17 +1 x19 +1 x21 +1 x22 +1 x25 +1 x27 +1 x31 +1 x34 +1 x53 +1 x57 +1 x63 +1 x70
  +1 x80 +1 x81 +1 x89 +1 x93 +1 x95 +1 x96 +1 x97 +1 x98 +1 x101 +1 x102 +1 x105 +1 x116 +1 x119 +1 x126
  +1 x130 +1 x143 +1 x146 >= +1
 c44: +1 x1 +1 x20 +1 x23 +1 x37 +1 x42 +1 x43 +1 x49 +1 x51 +1 x60 +1 x69 +1 x76 +1 x82 +1 x83 +1 x84
  +1 x87 +1 x92 +1 x94 +1 x103 +1 x116 +1 x125 +1 x132 +1 x133 +1 x136 +1 x140 +1 x141 +1 x146 >= +1
 c45: +1 x5 +1 x9 +1 x13 +1 x32 +1 x34 +1 x36 +1 x37 +1 x38 +1 x39 +1 x48 +1 x57 +1 x58 +1 x63 +1 x70
  +1 x83 +1 x85 +1 x102 +1 x105 +1 x118 +1 x123 +1 x131 +1 x133 +1 x135 +1 x141 >= +1
 c46: +1 x3 +1 x9 +1 x24 +1 x26 +1 x33 +1 x40 +1 x41 +1 x60 +1 x66 +1 x67 +1 x70 +1 x71 +1 x87 +1 x94
  +1 x96 +1 x99 +1 x101 +1 x102 +1 x115 +1 x130 +1 x133 +1 x136 +1 x139 +1 x143 >= +1
 c47: +1 x5 +1 x15 +1 x31 +1 x35 +1 x39 +1 x43 +1 x47 +1 x52 +1 x56 +1 x77 +1 x78 +1 x84 +1 x86 +1 x94
  +1 x97 +1 x111 +1 x116 +1 x127 +1 x128 >= +1
 c48: +1 x4 +1 x10 +1 x13 +1 x16 +1 x46 +1 x49 +1 x54 +1 x57 +1 x65 +1 x72 +1 x76 +1 x83 +1 x94 +1 x97
  +1 x102 +1 x103 +1 x110 +1 x115 +1 x118 +1 x130 +1 x135 +1 x136 >= +1
 c49: +1 x4 +1 x6 +1 x13 +1 x31 +1 x32 +1 x37 +1 x50 +1 x53 +1 x54 +1 x62 +1 x63 +1 x66 +1 x67 +1 x68
  +1 x69 +1 x78 +1 x81 +1 x83 +1 x105 +1 x122 +1 x125 +1 x134 +1 x139 +1 x145 >= +1
 c50: +1 x4 +1 x12 +1 x17 +1 x31 +1 x32 +1 x43 +1 x46 +1 x61 +1 x66 +1 x69 +1 x75 +1 x80 +1 x85 +1 x100
  +1 x105 +1 x106 +1 x109 +1 x119 +1 x120 +1 x124 +1 x126 +1 x132 +1 x133 +1 x134 >= +1
 c51: +1 x5 +1 x8 +1 x22 +1 x23 +1 x28 +1 x30 +1 x37 +1 x39 +1 x40 +1 x41 +1 x42 +1 x47 +1 x51 +1 x54
  +1 x55 +1 x59 +1 x60 +1 x67 +1 x68 +1 x70 +1 x80 +1 x90 +1 x98 +1 x103 +1 x106 +1 x118 +1 x119 +1 x128
  +1 x134 +1 x137 >= +1
 c52: +1 x4 +1 x10 +1 x34 +1 x37 +1 x57 +1 x59 +1 x75 +1 x78 +1 x89 +1 x90 +1 x91 +1 x95 +1 x98 +1 x100
  +1 x109 +1 x115 +1 x116 +1 x117 +1 x136 +1 x146 >= +1
 c53: +1 x2 +1 x8 +1 x16 +1 x21 +1 x44 +1 x46 +1 x52 +1 x57 +1 x66 +1 x70 +1 x78 +1 x79 +1 x86 +1 x88
  +1 x101 +1 x125 +1 x132 +1 x134 +1 x140 +1 x144 +1 x145 >= +1
 c54: +1 x1 +1 x11 +1 x15 +1 x23 +1 x31 +1 x39 +1 x40 +1 x41 +1 x44 +1 x53 +1 x70 +1 x85 +1 x86 +1 x96
  +1 x105 +1 x116 +1 x117 +1 x119 +1 x121 +1 x132 +1 x135 +1 x136 +1 x138 +1 x139 +1 x145 >= +1
 c55: +1 x3 +1 x26 +1 x32 +1 x44 +1 x47 +1 x50 +1 x57 +1 x60 +1 x61 +1 x63 +1 x70 +1 x77 +1 x82 +1 x84
  +1 x87 +1 x94 +1 x96 +1 x131 +1 x136 +1 x142 +1 x149 >= +1
 c56: +1 x3 +1 x11 +1 x30 +1 x35 +1 x37 +1 x41 +1 x48 +1 x65 +1 x68 +1 x83 +1 x89 +1 x92 +1 x110 +1 x111
  +1 x112 +1 x134 +1 x135 +1 x141 +1 x142 +1 x143 +1 x147 >= +1
 c57: +1 x0 +1 x12 +1 x20 +1 x28 +1 x37 +1 x39 +1 x46 +1 x47 +1 x71 +1 x73 +1 x75 +1 x77 +1 x95 +1 x108
  +1 x109 +1 x111 +1 x125 +1 x126 +1 x130 +1 x133 +1 x134 +1 x143 +1 x148 +1 x149 >= +1
 c58: +1 x5 +1 x11 +1 x19 +1 x31 +1 x34 +1 x35 +1 x46 +1 x65 +1 x70 +1 x84 +1 x89 +1 x90 +1 x92 +1 x94
  +1 x107 +1 x109 +1 x115 +1 x128 +1 x129 +1 x145 >= +1
 c59: +1 x0 +1 x10 +1 x11 +1 x12 +1 x15 +1 x24 +1 x31 +1 x34 +1 x42 +1 x47 +1 x48 +1 x54 +1 x63 +1 x66
  +1 x90 +1 x94 +1 x123 +1 x133 +1 x144 >= +1
 c60: +1 x0 +1 x10 +1 x16 +1 x24 +1 x29 +1 x30 +1 x32 +1 x33 +1 x54 +1 x55 +1 x56 +1 x70 +1 x71 +1 x84
  +1 x86 +1 x87 +1 x93 +1 x100 +1 x104 +1 x109 +1 x111 +1 x122 +1 x141 +1 x145 >= +1
 c61: +1 x2 +1 x16 +1 x17 +1 x29 +1 x34 +1 x35 +1 x39 +1 x40 +1 x62 +1 x63 +1 x64 +1 x66 +1 x72 +1 x84
  +1 x88 +1 x90 +1 x95 +1 x101 +1 x107 +1 x114 +1 x115 +1 x138 +1 x141 >= +1
 c62: +1 x3 +1 x9 +1 x11 +1 x24 +1 x28 +1 x40 +1 x41 +1 x48 +1 x49 +1 x50 +1 x56 +1 x62 +1 x67 +1 x71
  +1 x84 +1 x90 +1 x92 +1 x105 +1 x110 +1 x116 +1 x122 +1 x136 +1 x137 +1 x141 +1 x142 +1 x147 >= +1
 c63: +1 x2 +1 x22 +1 x38 +1 x43 +1 x57 +1 x60 +1 x63 +1 x66 +1 x75 +1 x77 +1 x78 +1 x84 +1 x85 +1 x94
  +1 x100 +1 x106 +1 x113 +1 x118 +1 x119 +1 x121 +1 x125 +1 x126 +1 x134 +1 x142 +1 x144 +1 x148 +1 x149
  >= +1
 c64: +1 x3 +1 x17 +1 x21 +1 x22 +1 x25 +1 x26 +1 x28 +1 x38 +1 x39 +1 x45 +1 x55 +1 x59 +1 x60 +1 x62
  +1 x69 +1 x81 +1 x89 +1 x91 +1 x98 +1 x104 +1 x105 +1 x128 +1 x131 +1 x146 >= +1
 c65: +1 x3 +1 x16 +1 x18 +1 x23 +1 x38 +1 x43 +1 x45 +1 x62 +1 x73 +1 x74 +1 x78 +1 x85 +1 x89 +1 x103
  +1 x107 +1 x111 +1 x117 +1 x119 +1 x125 +1 x140 +1 x147 >= +1
 c66: +1 x5 +1 x19 +1 x23 +1 x34 +1 x35 +1 x37 +1 x38 +1 x52 +1 x53 +1 x54 +1 x60 +1 x81 +1 x85 +1 x88
  +1 x94 +1 x118 +1 x128 +1 x129 +1 x137 +1 x139 +1 x145 +1 x148 >= +1
 c67: +1 x6 +1 x17 +1 x28 +1 x38 +1 x43 +1 x44 +1 x47 +1 x51 +1 x57 +1 x82 +1 x85 +1 x90 +1 x94 +1 x105
  +1 x113 +1 x121 +1 x123 +1 x124 +1 x140 >= +1
 c68: +1 x0 +1 x10 +1 x17 +1 x19 +1 x24 +1 x32 +1 x43 +1 x53 +1 x55 +1 x63 +1 x67 +1 x89 +1 x90 +1 x92
  +1 x105 +1 x106 +1 x116 +1 x117 +1 x121 +1 x142 >= +1
 c69: +1 x1 +1 x8 +1 x16 +1 x27 +1 x29 +1 x34 +1 x36 +1 x45 +1 x47 +1 x53 +1 x60 +1 x68 +1 x71 +1 x73
  +1 x74 +1 x83 +1 x84 +1 x94 +1 x102 +1 x110 +1 x116 +1 x124 +1 x125 +1 x126 +1 x147 +1 x149 >= +1
 c70: +1 x2 +1 x19 +1 x47 +1 x57 +1 x67 +1 x70 +1 x79 +1 x80 +1 x84 +1 x86 +1 x100 +1 x107 +1 x112 +1 x113
  +1 x114 +1 x121 +1 x142 +1 x149 >= +1
 c71: +1 x2 +1 x8 +1 x14 +1 x17 +1 x25 +1 x28 +1 x32 +1 x44 +1 x47 +1 x48 +1 x50 +1 x64 +1 x72 +1 x76
  +1 x78 +1 x87 +1 x91 +1 x134 +1 x143 +1 x146 >= +1
 c72: +1 x2 +1 x8 +1 x16 +1 x24 +1 x29 +1 x39 +1 x44 +1 x46 +1 x53 +1 x69 +1 x76 +1 x83 +1 x85 +1 x92
  +1 x93 +1 x101 +1 x107 +1 x110 +1 x117 +1 x126 +1 x133 +1 x143 >= +1
 c73: +1 x2 +1 x16 +1 x28 +1 x32 +1 x35 +1 x37 +1 x41 +1 x49 +1 x63 +1 x76 +1 x78 +1 x87 +1 x89 +1 x95
  +1 x107 +1 x112 +1 x125 +1 x126 +1 x129 +1 x132 +1 x133 >= +1
 c74: +1 x5 +1 x14 +1 x29 +1 x32 +1 x35 +1 x39 +1 x48 +1 x52 +1 x53 +1 x55 +1 x56 +1 x57 +1 x69 +1 x72
  +1 x74 +1 x82 +1 x91 +1 x100 +1 x104 +1 x107 +1 x113 +1 x115 +1 x127 +1 x136 +1 x148 >= +1
 c75: +1 x3 +1 x8 +1 x20 +1 x21 +1 x23 +1 x25 +1 x34 +1 x45 +1 x57 +1 x61 +1 x68 +1 x69 +1 x70 +1 x76
  +1 x101 +1 x107 +1 x122 +1 x123 +1 x124 +1 x128 +1 x131 >= +1
 c76: +1 x3 +1 x7 +1 x10 +1 x20 +1 x27 +1 x29 +1 x36 +1 x42 +1 x70 +1 x71 +1 x77 +1 x82 +1 x92 +1 x98
  +1 x124 +1 x125 +1 x128 +1 x148 >= +1
 c77: +1 x3 +1 x17 +1 x33 +1 x42 +1 x55 +1 x59 +1 x85 +1 x86 +1 x93 +1 x94 +1 x95 +1 x96 +1 x104 +1 x106
  +1 x113 +1 x118 +1 x122 +1 x135 +1 x145 >= +1
 c78: +1 x5 +1 x6 +1 x14 +1 x19 +1 x20 +1 x28 +1 x32 +1 x38 +1 x39 +1 x45 +1 x55 +1 x61 +1 x66 +1 x74
  +1 x82 +1 x98 +1 x102 +1 x104 +1 x106 +1 x112 +1 x116 +1 x118 +1 x122 +1 x127 +1 x131 +1 x134 +1 x139
  +1 x149 >= +1
 c79: +1 x1 +1 x16 +1 x17 +1 x19 +1 x30 +1 x35 +1 x41 +1 x43 +1 x44 +1 x53 +1 x56 +1 x65 +1 x73 +1 x76
  +1 x84 +1 x85 +1 x87 +1 x96 +1 x105 +1 x120 +1 x135 +1 x139 +1 x142 +1 x147 >= +1
 c80: +1 x0 +1 x10 +1 x14 +1 x16 +1 x23 +1 x25 +1 x26 +1 x34 +1 x37 +1 x42 +1 x43 +1 x50 +1 x52 +1 x64
  +1 x65 +1 x82 +1 x102 +1 x120 +1 x132 >= +1
 c81: +1 x4 +1 x19 +1 x20 +1 x22 +1 x25 +1 x35 +1 x42 +1 x55 +1 x61 +1 x70 +1 x73 +1 x78 +1 x84 +1 x87
  +1 x99 +1 x106 +1 x110 +1 x118 +1 x121 +1 x123 +1 x131 +1 x132 +1 x133 +1 x135 +1 x148 >= +1
 c82: +1 x6 +1 x7 +1 x14 +1 x18 +1 x19 +1 x26 +1 x46 +1 x54 +1 x65 +1 x66 +1 x73 +1 x76 +1 x77 +1 x82
  +1 x100 +1 x116 +1 x119 +1 x123 +1 x124 +1 x133 +1 x137 +1 x140 >= +1
 c83: +1 x3 +1 x7 +1 x9 +1 x10 +1 x18 +1 x24 +1 x39 +1 x46 +1 x69 +1 x70 +1 x72 +1 x74 +1 x82 +1 x88 +1 x92
  +1 x97 +1 x99 +1 x109 +1 x117 +1 x131 +1 x144 >= +1
 c84: +1 x5 +1 x13 +1 x20 +1 x23 +1 x24 +1 x25 +1 x31 +1 x35 +1 x38 +1 x49 +1 x53 +1 x55 +1 x56 +1 x63
  +1 x72 +1 x77 +1 x90 +1 x101 +1 x105 +1 x113 +1 x115 +1 x130 +1 x148 +1 x149 >= +1
 c85: +1 x4 +1 x13 +1 x27 +1 x30 +1 x37 +1 x48 +1 x58 +1 x63 +1 x65 +1 x71 +1 x78 +1 x81 +1 x82 +1 x86
  +1 x88 +1 x90 +1 x94 +1 x115 +1 x127 +1 x141 >= +1
 c86: +1 x6 +1 x16 +1 x27 +1 x31 +1 x67 +1 x75 +1 x80 +1 x81 +1 x82 +1 x85 +1 x87 +1 x94 +1 x110 +1 x114
  +1 x117 +1 x121 +1 x122 +1 x126 +1 x131 +1 x132 +1 x135 +1 x137 +1 x142 +1 x144 >= +1
 c87: +1 x3 +1 x14 +1 x17 +1 x19 +1 x22 +1 x26 +1 x30 +1 x32 +1 x53 +1 x59 +1 x62 +1 x65 +1 x91 +1 x93
  +1 x101 +1 x102 +1 x113 +1 x118 +1 x119 +1 x120 +1 x128 +1 x136 +1 x137 +1 x139 +1 x140 >= +1
 c88: +1 x0 +1 x7 +1 x16 +1 x24 +1 x32 +1 x41 +1 x47 +1 x59 +1 x65 +1 x72 +1 x73 +1 x80 +1 x81 +1 x87
  +1 x98 +1 x100 +1 x111 +1 x120 +1 x126 +1 x130 +1 x132 +1 x133 +1 x135 +1 x137 +1 x138 +1 x141 +1 x148
  +1 x149 >= +1
 c89: +1 x5 +1 x8 +1 x17 +1 x28 +1 x35 +1 x36 +1 x43 +1 x45 +1 x52 +1 x58 +1 x62 +1 x67 +1 x83 +1 x84
  +1 x87 +1 x92 +1 x103 +1 x113 +1 x115 +1 x122 +1 x127 +1 x131 +1 x133 +1 x135 +1 x142 >= +1
 c90: +1 x4 +1 x9 +1 x45 +1 x47 +1 x58 +1 x61 +1 x64 +1 x65 +1 x73 +1 x76 +1 x78 +1 x81 +1 x86 +1 x90
  +1 x91 +1 x105 +1 x107 +1 x111 +1 x118 +1 x149 >= +1
 c91: +1 x0 +1 x7 +1 x9 +1 x13 +1 x15 +1 x23 +1 x43 +1 x46 +1 x51 +1 x53 +1 x64 +1 x75 +1 x76 +1 x89 +1 x91
  +1 x95 +1 x105 +1 x118 +1 x129 +1 x135 +1 x138 >= +1
 c92: +1 x1 +1 x17 +1 x46 +1 x54 +1 x55 +1 x58 +1 x60 +1 x61 +1 x93 +1 x95 +1 x105 +1 x106 +1 x112 +1 x114
  +1 x120 +1 x126 +1 x143 +1 x144 +1 x146 +1 x149 >= +1
 c93: +1 x5 +1 x8 +1 x20 +1 x23 +1 x28 +1 x29 +1 x30 +1 x41 +1 x42 +1 x44 +1 x61 +1 x65 +1 x69 +1 x73
  +1 x76 +1 x99 +1 x103 +1 x109 +1 x123 +1 x142 >= +1
 c94: +1 x4 +1 x13 +1 x14 +1 x21 +1 x26 +1 x27 +1 x28 +1 x35 +1 x38 +1 x43 +1 x45 +1 x53 +1 x70 +1 x85
  +1 x90 +1 x92 +1 x94 +1 x115 +1 x121 +1 x131 +1 x136 +1 x146 >= +1
 c95: +1 x0 +1 x7 +1 x17 +1 x33 +1 x42 +1 x47 +1 x48 +1 x51 +1 x52 +1 x56 +1 x62 +1 x74 +1 x81 +1 x82
  +1 x87 +1 x92 +1 x94 +1 x107 +1 x112 +1 x115 +1 x123 +1 x127 +1 x136 +1 x141 >= +1
 c96: +1 x1 +1 x6 +1 x9 +1 x21 +1 x22 +1 x30 +1 x35 +1 x40 +1 x46 +1 x50 +1 x57 +1 x67 +1 x69 +1 x71 +1 x74
  +1 x84 +1 x108 +1 x115 +1 x116 +1 x117 +1 x126 +1 x127 +1 x132 +1 x135 +1 x137 +1 x140 >= +1
 c97: +1 x4 +1 x9 +1 x13 +1 x20 +1 x28 +1 x42 +1 x56 +1 x57 +1 x60 +1 x80 +1 x82 +1 x89 +1 x91 +1 x94
  +1 x99 +1 x101 +1 x107 +1 x113 +1 x123 +1 x136 +1 x144 >= +1
 c98: +1 x5 +1 x9 +1 x24 +1 x26 +1 x27 +1 x47 +1 x51 +1 x62 +1 x75 +1 x84 +1 x87 +1 x96 +1 x104 +1 x106
  +1 x109 +1 x117 +1 x121 +1 x127 +1 x138 +1 x142 +1 x143 +1 x146 +1 x149 >= +1
 c99: +1 x0 +1 x12 +1 x16 +1 x20 +1 x25 +1 x50 +1 x51 +1 x56 +1 x60 +1 x63 +1 x65 +1 x66 +1 x67 +1 x76
  +1 x88 +1 x91 +1 x92 +1 x102 +1 x115 +1 x116 +1 x121 +1 x126 +1 x130 +1 x132 +1 x140 +1 x143 >= +1
Bounds
 0 <= x0 <= 1
 0 <= x1 <= 1
 0 <= x2 <= 1
 0 <= x3 <= 1
 0 <= x4 <= 1
 0 <= x5 <= 1
 0 <= x6 <= 1
 0 <= x7 <= 1
 0 <= x8 <= 1
 0 <= x9 <= 1
 0 <= x10 <= 1
 0 <= x11 <= 1
 0 <= x12 <= 1
 0 <= x13 <= 1
 0 <= x14 <= 1
 0 <= x15 <= 1
 0 <= x16 <= 1
 0 <= x17 <= 1
 0 <= x18 <= 1
 0 <= x19 <= 1
 0 <= x20 <= 1
 0 <= x21 <= 1
 0 <= x22 <= 1
 0 <= x23 <= 1
 0 <= x24 <= 1
 0 <= x25 <= 1
 0 <= x26 <= 1
 0 <= x27 <= 1
 0 <= x28 <= 1
 0 <= x29 <= 1
 0 <= x30 <= 1
 0 <= x31 <= 1
 0 <= x32 <= 1
 0 <= x33 <= 1
 0 <= x34 <= 1
 0 <= x35 <= 1
 0 <= x36 <= 1
 0 <= x37 <= 1
 0 <= x38 <= 1
 0 <= x39 <= 1
 0 <= x40 <= 1
 0 <= x41 <= 1
 0 <= x42 <= 1
 0 <= x43 <= 1
 0 <= x44 <= 1
 0 <= x45 <= 1
 0 <= x46 <= 1
 0 <= x47 <= 1
 0 <= x48 <= 1
 0 <= x49 <= 1
 0 <= x50 <= 1
 0 <= x51 <= 1
 0 <= x52 <= 1
 0 <= x53 <= 1
 0 <= x54 <= 1
 0 <= x55 <= 1
 0 <= x56 <= 1
 0 <= x57 <= 1
 0 <= x58 <= 1
 0 <= x59 <= 1
 0 <= x60 <= 1
 0 <= x61 <= 1
 0 <= x62 <= 1
 0 <= x63 <= 1
 0 <= x64 <= 1
 0 <= x65 <= 1
 0 <= x66 <= 1
 0 <= x67 <= 1
 0 <= x68 <= 1
 0 <= x69 <= 1
 0 <= x70 <= 1
 0 <= x71 <= 1
 0 <= x72 <= 1
 0 <= x73 <= 1
 0 <= x74 <= 1
 0 <= x75 <= 1
 0 <= x76 <= 1
 0 <= x77 <= 1
 0 <= x78 <= 1
 0 <= x79 <= 1
 0 <= x80 <= 1
 0 <= x81 <= 1
 0 <= x82 <= 1
 0 <= x83 <= 1
 0 <= x84 <= 1
 0 <= x85 <= 1
 0 <= x86 <= 1
 0 <= x87 <= 1
 0 <= x88 <= 1
 0 <= x89 <= 1
 0 <= x90 <= 1
 0 <= x91 <= 1
 0 <= x92 <= 1
 0 <= x93 <= 1
 0 <= x94 <= 1
 0 <= x95 <= 1
 0 <= x96 <= 1
 0 <= x97 <= 1
 0 <= x98 <= 1
 0 <= x99 <= 1
 0 <= x100 <= 1
 0 <= x101 <= 1
 0 <= x102 <= 1
 0 <= x103 <= 1
 0 <= x104 <= 1
 0 <= x105 <= 1
 0 <= x106 <= 1
 0 <= x107 <= 1
 0 <= x108 <= 1
 0 <= x109 <= 1
 0 <= x110 <= 1
 0 <= x111 <= 1
 0 <= x112 <= 1
 0 <= x113 <= 1
 0 <= x114 <= 1
 0 <= x115 <= 1
 0 <= x116 <= 1
 0 <= x117 <= 1
 0 <= x118 <= 1
 0 <= x119 <= 1
 0 <= x120 <= 1
 0 <= x121 <= 1
 0 <= x122 <= 1
 0 <= x123 <= 1
 0 <= x124 <= 1
 0 <= x125 <= 1
 0 <= x126 <= 1
 0 <= x127 <= 1
 0 <= x128 <= 1
 0 <= x129 <= 1
 0 <= x130 <= 1
 0 <= x131 <= 1
 0 <= x132 <= 1
 0 <= x133 <= 1
 0 <= x134 <= 1
 0 <= x135 <= 1
 0 <= x136 <= 1
 0 <= x137 <= 1
 0 <= x138 <= 1
 0 <= x139 <= 1
 0 <= x140 <= 1
 0 <= x141 <= 1
 0 <= x142 <= 1
 0 <= x143 <= 1
 0 <= x144 <= 1
 0 <= x145 <= 1
 0 <= x146 <= 1
 0 <= x147 <= 1
 0 <= x148 <= 1
 0 <= x149 <= 1
Binaries
 x0 x1 x2 x3 x4 x5 x6 x7 x8 x9 x10 x11 x12 x13 x14 x15 x16 x17 x18 x19 x20 x21 x22 x23 x24 x25 x26 x27
 x28 x29 x30 x31 x32 x33 x34 x35 x36 x37 x38 x39 x40 x41 x42 x43 x44 x45 x46 x47 x48 x49 x50 x51 x52 x53
 x54 x55 x56 x57 x58 x59 x60 x61 x62 x63 x64 x65 x66 x67 x68 x69 x70 x71 x72 x73 x74 x75 x76 x77 x78 x79
 x80 x81 x82 x83 x84 x85 x86 x87 x88 x89 x90 x91 x92 x93 x94 x95 x96 x97 x98 x99 x100 x101 x102 x103 x104
 x105 x106 x107 x108 x109 x110 x111 x112 x113 x114 x115 x116 x117 x118 x119 x120 x121 x122 x123 x124 x125
 x126 x127 x128 x129 x130 x131 x132 x133 x134 x135 x136 x137 x138 x139 x140 x141 x142 x143 x144 x145 x146
 x147 x148 x149
End
